Geometry = GenFormat {
     <<< "pippopluto.genstruct"
}

Driver = Socket {
    File="driver "
    Protocol = i-PI{}
	Verbosity = 1
    MaxSteps=100000
   }

Hamiltonian = DFTB{
   ReadInitialCharges = No
   MaxSCCIterations = 100
   Charge = +1.0
   DampXH = Yes
   DampXHExponent = 4.0
   Eigensolver = RelativelyRobust{}
   HubbardDerivs = {
      H = -0.1857
      C = -0.1492
      S = -0.11
#      O = -0.1492
   }
   MaxAngularMomentum = {
      H = "s"
      C = "p"
      S = "d"
#      O = "p"
   }
   SCC = Yes
   SlaterKosterFiles = Type2FileNames{
      Prefix = /home/petragli/Codes/dftb-dev/SK-parameters/3ob-1-1/
      Separator = "-"
      Suffix = ".skf"
   }
   KPointsAndWeights = {
   0.5 0.5 0.5 1.
   }
   ThirdOrderFull = Yes
   Filling = Fermi{
	Temperature[K] = 300
	}
   Dispersion = LennardJones {
      Parameters = UFFParameters{}
   }
}
Options {
   WriteResultsTag = No
   WriteDetailedOut = No
}
